Welcome to sphere packing routines, relation testing division.
Welcome to Section A.2.7.10.  
Enter cell count limit:  Enter slop:  		Slop = -1e-06
Starting time:  	Tue Jul  7 23:49:07 1998

Case 1:
	Gma scoring:
rhs = -0.297733293667008070
2.199999999999999734	2.510000000000000231
2.000000000000000000	2.510000000000000231
2.000000000000000000	2.510000000000000231
2.000000000000000000	2.510000000000000231
2.000000000000000000	2.510000000000000231
2.000000000000000000	2.510000000000000231

cellcount    =          1034593		maxdepth = 4
partialpushes=                0
largecut     =                0		discards     =                0
smallcut     =                0		verifycount  =          1018427
partialcount =                0		diff         =            16166
Verification succeeded.

		Boundary:
2.199999999999999734	2.510000000000000231
2.000000000000000000	2.510000000000000231
2.000000000000000000	2.510000000000000231
2.000000000000000000	2.510000000000000231
2.000000000000000000	2.510000000000000231
2.000000000000000000	2.510000000000000231

cellcount    =          1034593		maxdepth = 4
partialpushes=                0
largecut     =                0		discards     =                0
smallcut     =                0		verifycount  =          1018427
partialcount =                0		diff         =            16166
Verification succeeded.

Case 2:
	Gma scoring:
rhs = -0.399525634709446242
2.199999999999999734	2.510000000000000231
2.000000000000000000	2.510000000000000231
2.000000000000000000	2.510000000000000231
2.000000000000000000	2.510000000000000231
2.000000000000000000	2.510000000000000231
2.000000000000000000	2.510000000000000231

cellcount    =           810465		maxdepth = 4
partialpushes=                0
largecut     =                0		discards     =                0
smallcut     =                0		verifycount  =           797801
partialcount =                0		diff         =            12664
Verification succeeded.

		Boundary:
2.199999999999999734	2.510000000000000231
2.000000000000000000	2.510000000000000231
2.000000000000000000	2.510000000000000231
2.000000000000000000	2.510000000000000231
2.000000000000000000	2.510000000000000231
2.000000000000000000	2.510000000000000231

cellcount    =           810465		maxdepth = 4
partialpushes=                0
largecut     =                0		discards     =                0
smallcut     =                0		verifycount  =           797801
partialcount =                0		diff         =            12664
Verification succeeded.

Case 3:
	Gma scoring:
rhs = -0.399525634709446242
2.199999999999999734	2.510000000000000231
2.000000000000000000	2.510000000000000231
2.000000000000000000	2.510000000000000231
2.000000000000000000	2.510000000000000231
2.000000000000000000	2.510000000000000231
2.000000000000000000	2.510000000000000231

cellcount    =           810465		maxdepth = 4
partialpushes=                0
largecut     =                0		discards     =                0
smallcut     =                0		verifycount  =           797801
partialcount =                0		diff         =            12664
Verification succeeded.

		Boundary:
2.199999999999999734	2.510000000000000231
2.000000000000000000	2.510000000000000231
2.000000000000000000	2.510000000000000231
2.000000000000000000	2.510000000000000231
2.000000000000000000	2.510000000000000231
2.000000000000000000	2.510000000000000231

cellcount    =           810465		maxdepth = 4
partialpushes=                0
largecut     =                0		discards     =                0
smallcut     =                0		verifycount  =           797801
partialcount =                0		diff         =            12664
Verification succeeded.

Case 4:
	Vor scoring:
rhs = -0.683992228877945641
2.199999999999999734	2.510000000000000231
2.000000000000000000	2.510000000000000231
2.000000000000000000	2.510000000000000231
2.599999999999999645	2.828427124746190291
2.000000000000000000	2.510000000000000231
2.000000000000000000	2.510000000000000231

cellcount    =          4256657		maxdepth = 6
partialpushes=            70396
largecut     =                0		discards     =                0
smallcut     =                0		verifycount  =          4040634
partialcount =           115715		diff         =           100308
Verification succeeded.

Case 5:
	Vor scoring:
rhs = -0.441082884463546321
2.199999999999999734	2.510000000000000231
2.000000000000000000	2.510000000000000231
2.000000000000000000	2.510000000000000231
2.509999999999999787	2.509999999999999787
2.000000000000000000	2.510000000000000231
2.000000000000000000	2.510000000000000231

cellcount    =                1		maxdepth = 0
partialpushes=                0
largecut     =                0		discards     =                0
smallcut     =                0		verifycount  =                1
partialcount =                0		diff         =                0
Verification succeeded.

All verifications succeeded.

Done.
Ending time:    	Wed Jul  8 00:28:09 1998

Elapsed time: 2342 seconds,		diff = -1954.7
9567704 cells considered,		4085.27 cells per second


